8 -1 -1 7 -1 
1 10 8 5 -1 
6 10 2 9 -1 
7 -1 6 2 -1 
1 -1 -1 7 -1 
4 -1 4 8 -1 
3 -1 1 10 -1 
4 8 -1 10 -1 
4 0 10 -1 -1 
9 -1 6 7 -1 
9 3 7 5 -1 
-1 5 -1 8 -1 
-1 5 -1 3 -1 
9 -1 10 -1 -1 
2 7 9 2 -1 
-1 3 -1 8 -1 
4 1 6 -1 -1 
7 10 10 4 -1 
7 8 10 -1 -1 
4 3 8 9 -1 
